[[4, 25, 6, 15, 5, 24, 48, 46, 37, 38, 40, 39, 36, 35, 34, 44, 49, 22, 31, 18, 32, 45, 9, 10], [8, 41, 19, 3, 17, 21, 42, 7, 2, 30, 23, 20, 50, 29], [16, 28, 27, 26, 47, 13, 14, 52, 11, 12, 51, 33, 43]]